166
1000
247
499
275
933
952
542
198
208
704
58
333
831
689
115
248
471
1
623
589
60
324
515
21
322
452
67
99
141
207
780
66
236
69
79
196
25
629
341
384
622
647
501
302
93
268
20
868
92
538
268
36
644
263
802
136
859
130
625
857
169
377
411
651
399
36
223
753
901
50
178
202
258
732
14
930
179
45
928
495
254
25
23
70
316
122
777
872
146
157
142
127
29
248
843
160
615
43
431
717
486
218
598
393
539
520
337
270
508
698
369
14
157
134
117
63
179
870
21
659
38
913
306
752
28
732
955
47
65
215
137
76
491
106
220
251
88
531
255
143
268
14
74
728
242
374
492
357
252
282
153
234
569
873
67
132
878
195
822
434
819
706
478
380
71
333
126
